c SAT4J: a SATisfiability library for Java (c) 2004-2013 Artois University and CNRS
c This is free software under the dual EPL/GNU LGPL licenses.
c See www.sat4j.org for details.
c version 2.3.5.WHEEZY
c java.runtime.name	OpenJDK Runtime Environment
c java.vm.name		OpenJDK 64-Bit Server VM
c java.vm.version	11.0.9.1+1-post-Debian-1deb10u2
c java.vm.vendor	Debian
c sun.arch.data.model	64
c java.version		11.0.9.1
c os.name		Linux
c os.version		4.19.0-13-amd64
c os.arch		amd64
c Free memory 		263971296
c Max memory 		4206886912
c Total memory 		266338304
c Number of processors 	4
c --- Begin Solver configuration ---
c org.sat4j.minisat.constraints.MixedDataStructureDanielWL@4d76f3f8
c Learn all clauses as in MiniSAT
c claDecay=0.999 varDecay=0.95 conflictBoundIncFactor=1.5 initConflictBound=100 
c VSIDS like heuristics from MiniSAT using a heap lightweight component caching from RSAT
c Expensive reason simplification
c Glucose 2.1 dynamic restart strategy
c Glucose 2 learned constraints deletion strategy
c timeout=2147483647s
c DB Simplification allowed=true
c Listener: org.sat4j.minisat.core.VoidTracing@6438a396
c --- End Solver configuration ---
c solving dimacs/4x4_1.cnf
c reading problem ... 
c ... done. Wall clock time 0.051s.
c declared #vars     128
c #constraints  12752
c constraints type 
c org.sat4j.minisat.constraints.cnf.OriginalBinaryClause => 192
c org.sat4j.minisat.constraints.cnf.OriginalWLClause => 12558
c ignored satisfied constraints => 2018
c org.sat4j.minisat.constraints.cnf.UnitClause => 2
c 14770 constraints processed.
c starts		: 1
c conflicts		: 87
c decisions		: 148
c propagations		: 1650
c inspects		: 86321
c shortcuts		: 0
c learnt literals	: 0
c learnt binary clauses	: 3
c learnt ternary clauses	: 8
c learnt constraints	: 87
c ignored constraints	: 0
c root simplifications	: 1
c removed literals (reason simplification)	: 86
c reason swapping (by a shorter reason)	: 0
c Calls to reduceDB	: 0
c Number of update (reduction) of LBD	: 18
c Imported unit clauses	: 0
c speed (assignments/second)	: 66000.0
c non guided choices	12
c learnt constraints type 
c org.sat4j.minisat.constraints.cnf.LearntWLClause => 84
c org.sat4j.minisat.constraints.cnf.LearntBinaryClause => 3
c constraints type 
c org.sat4j.minisat.constraints.cnf.OriginalBinaryClause => 192
c org.sat4j.minisat.constraints.cnf.OriginalWLClause => 12558
c ignored satisfied constraints => 2018
c org.sat4j.minisat.constraints.cnf.UnitClause => 2
c 14770 constraints processed.
s SATISFIABLE
v -1 -2 3 -4 -5 -6 -7 8 9 -10 -11 -12 -13 14 -15 -16 17 -18 -19 -20 21 -22 -23 -24 -25 -26 27 -28 -29 -30 31 -32 -33 -34 35 -36 -37 38 -39 -40 -41 -42 -43 44 -45 46 -47 -48 -49 -50 51 -52 53 -54 -55 -56 -57 58 -59 -60 -61 -62 63 -64 -65 -66 -67 68 -69 -70 -71 72 73 -74 -75 -76 -77 -78 -79 80 -81 -82 -83 84 85 -86 -87 -88 -89 90 -91 -92 93 -94 -95 -96 -97 98 -99 -100 -101 -102 -103 104 105 -106 -107 -108 -109 -110 111 -112 -113 -114 -115 116 -117 -118 119 -120 -121 122 -123 -124 -125 126 -127 -128 0
c Total wall clock time (in seconds) : 0.079
